# LAMMPS atomistic input script

echo		screen
units		real
atom_style	full

# Variable definitions

variable	project		index	{{project_name}}    # project name

variable	temperature	index	{{temperature}}	    # system temperature
variable	pressure	index	{{pressure}}	    # system pressure

variable	tdamp		index	100		            # temperature damping
variable	pdamp		index	1000		        # pressure damping

variable	precision	index	1e-04		        # kspace precision

variable	vseed		index	486234		        # velocity seed

variable	tequib		index	{{time.equib}}	    # run time
variable	tprod		index	{{time.prod}}	    # run time

variable	dtthermo	index	{{time.thermo}}	    # delta thermo time

variable	timestep	index	1		            # integration time step

variable	tfreq		index	{{time.sampling_frequency}}	# profile sampling freq
variable	nsample		index	{{time.sampling_number}}   	# profile conf sampling
variable	dtime		equal	${tfreq}*${nsample}		# profile dtime


# Read system data 

{% if not restart %}read_data       {{path.data}} {% else %} read_restart     {{path.restart}} {% endif %}
change_box 		all triclinic

# Read in system parameters (including potential definition)

include         {{path.parameter}}

# Integration conditions (check)

timestep	${timestep}
kspace_style pppm/cg ${precision}

{%- if deformation.direction is not none %}
# Deformation

variable  deform_rate equal {{deformation.rate}}
{%- endif %}
{%- if deformation.direction == x %}
# Deformation in x direction
variable delta equal ${deform_rate}*lx
variable deltaxy equal ${deform_rate}*xy
variable deltaxz equal ${deform_rate}*xz

change_box all x delta 0 ${delta} xy delta ${deltaxy} xz delta ${deltaxz} remap units box
{%- elif deformation.direction == y %}
# Deformation in y direction
variable delta equal ${deform_rate}*ly
variable deltayz equal ${deform_rate}*yz

change_box all y delta 0 ${delta} yz delta ${deltayz} remap units box
{%- elif deformation.direction == z %}
# Deformation in z direction
variable delta equal ${deform_rate}*lz

change_box all z delta 0 ${delta} remap units box
{%- elif deformation.direction == xy %}
# Deformation in xy direction
variable delta equal ${deform_rate}*ly

change_box all xy delta ${delta} remap units box
{%- elif deformation.direction == xz %}
# Deformation in xz direction
variable delta equal ${deform_rate}*lz

change_box all xz delta ${delta} remap units box
{%- elif deformation.direction == yz %}
# Deformation in yz direction
variable delta equal ${deform_rate}*lz

change_box all yz delta ${delta} remap units box
{%- elif deformation.direction == undeformed %}
# Undeformed box
change_box all triclinic
{%- endif %}

# Energy minimization

min_style               cg
thermo_style            custom step temp press pe ke etotal enthalpy evdwl ecoul
thermo                  10
minimize                1e-10 1e-10 10000 10000

thermo_style            custom step temp press pe lx ly lz xy xz yz
thermo                  ${dtthermo}


# Simulation

{%- if deformation.direction is not none %}
fix		int all nvt temp ${temperature} ${temperature} ${tdamp}
{%- else %}
# Integrator --> adjust all 6 box tensors independently to achieve 1atm in main (xx,yy,zz) and 0atm in off dimensions (xy,xz,yz)
 
fix		int all npt temp ${temperature} ${temperature} ${tdamp} &
		tri ${pressure} ${pressure} ${pdamp}
{%- endif %}

# Equilibration
run		${tequib}

{%- if deformation.direction is not none %}

# System sampling: pressure

fix		sample_press all ave/time ${tfreq} ${nsample} ${dtime} &
		c_thermo_temp &
		c_thermo_press[1] c_thermo_press[2] c_thermo_press[3] &
		c_thermo_press[4] c_thermo_press[5] c_thermo_press[6] &
		file ${project}.pressure
{%- endif %}

{%- if deformation.direction is none %}

# System sampling: lattice constants

variable a equal cella
variable b equal cellb
variable c equal cellc
variable alpha equal cellalpha
variable beta equal cellbeta
variable gamma equal cellgamma
variable density equal density

fix		sample_lattice all ave/time ${tfreq} ${nsample} ${dtime} &
		v_a v_b v_c v_alpha v_beta v_gamma v_density &
		file ${project}.lattice
{%- endif %}

# Production
run		${tprod}

{%- if deformation.direction is none %}
write_restart	${project}.restart
{%- endif %}